; benchmark generated from python API
(set-info :status unknown)
(declare-fun S_3 () Real)
(declare-fun S_4 () Real)
(declare-fun C () Real)
(declare-fun S_5 () Real)
(declare-fun L0 () Real)
(declare-fun B () Real)
(declare-fun S_0 () Real)
(declare-fun A_5 () Real)
(declare-fun A_2 () Real)
(declare-fun S_1 () Real)
(declare-fun A_3 () Real)
(declare-fun S_2 () Real)
(declare-fun L_0 () Real)
(declare-fun A_4 () Real)
(declare-fun L_1 () Real)
(declare-fun A_1 () Real)
(declare-fun A_0 () Real)
(assert
 (let (($x42 (>= L0 0.0)))
 (let (($x910 (>= C 5.0)))
 (let (($x696 (>= B 5.0)))
 (let ((?x1186 (* (- 1.0) S_0)))
 (let ((?x592 (* (- 1.0) A_5)))
 (let ((?x652 (* (- 1.0) B)))
 (let ((?x2419 (* (- 3.0) C)))
 (let (($x20310 (<= (+ (* (- 2.0) C) A_2 ?x652 ?x592 (* (- 1.0) S_1) S_5) 0.0)))
 (let (($x33485 (or (<= (+ A_3 (* (- 1.0) A_2) B) C) (<= (+ C A_2 ?x652 ?x592 (* (- 1.0) S_4) S_5) 0.0))))
 (let (($x20305 (<= (+ (* (- 1.0) C) A_2 ?x652 ?x592 (* (- 1.0) S_2) S_5) 0.0)))
 (let (($x18204 (<= (+ C S_3 (* (- 1.0) S_5)) 0.0)))
 (let (($x6390 (>= S_5 (+ A_4 (* (- 1.0) L_0)))))
 (let (($x1606 (not (= L_0 L_1))))
 (let ((?x635 (* (- 1.0) L_1)))
 (let ((?x1039 (+ A_4 ?x635)))
 (let (($x996 (>= S_5 ?x1039)))
 (let (($x966 (not (<= L_1 L_0))))
 (let (($x33045 (or $x966 $x996 (<= (+ (* 3.0 C) S_1 (* (- 1.0) S_5)) 0.0))))
 (let (($x33168 (or $x966 $x996 (<= (+ (* 4.0 C) S_0 (* (- 1.0) S_5)) 0.0))))
 (let (($x17774 (<= A_4 (+ A_3 C))))
 (let (($x18039 (not $x17774)))
 (let ((?x1171 (* 3.0 C)))
 (let ((?x17821 (+ A_1 ?x635 ?x652 ?x1171)))
 (let (($x17916 (>= S_5 ?x17821)))
 (let ((?x1302 (* 2.0 C)))
 (let ((?x600 (* (- 1.0) A_3)))
 (let ((?x16483 (+ A_4 ?x600 A_1 ?x635 ?x1302)))
 (let (($x17258 (>= S_5 ?x16483)))
 (let (($x17485 (<= (+ A_2 (* (- 1.0) A_1) (* (- 1.0) C)) 0.0)))
 (let (($x16921 (not $x17485)))
 (let (($x451 (<= A_2 (+ A_1 ?x652 C))))
 (let ((?x19218 (+ A_2 ?x635 ?x1302)))
 (let (($x19219 (>= S_5 ?x19218)))
 (let (($x17493 (not $x451)))
 (let (($x511 (<= A_3 (+ A_2 C))))
 (let (($x32411 (or $x511 $x996 $x17493 (not (<= (+ A_3 (* (- 1.0) A_2) (* (- 1.0) C)) B)) $x19219)))
 (let (($x18020 (<= (+ A_3 (* (- 1.0) A_2) (* (- 1.0) C)) B)))
 (let ((?x18666 (+ A_3 ?x635 C)))
 (let (($x18667 (>= S_5 ?x18666)))
 (let ((?x1032 (+ A_3 ?x635)))
 (let (($x992 (>= S_4 ?x1032)))
 (let ((?x561 (+ A_1 ?x635 ?x652 ?x1302)))
 (let (($x559 (>= S_4 ?x561)))
 (let (($x59 (= L_1 L_0)))
 (let ((?x604 (* (- 1.0) A_2)))
 (let ((?x596 (* (- 1.0) A_4)))
 (let ((?x680 (+ A_2 ?x635)))
 (let (($x944 (>= S_3 ?x680)))
 (let (($x41 (>= L_0 L0)))
 (let (($x131 (>= S_1 S_0)))
 (let (($x134 (>= S_2 S_1)))
 (let (($x137 (>= S_3 S_2)))
 (let (($x140 (>= S_4 S_3)))
 (let (($x145 (>= A_1 A_0)))
 (let (($x146 (>= A_2 A_1)))
 (let (($x147 (>= A_3 A_2)))
 (let (($x148 (>= A_4 A_3)))
 (let (($x149 (>= A_5 A_4)))
 (and (<= (+ A_0 (* (- 1.0) L_0)) S_5) (not (<= (+ A_0 (* (- 1.0) L_0)) S_4)) $x149 $x148 $x147 $x146 $x145 $x140 $x137 $x134 $x131 $x41 (or $x59 (<= S_1 (+ A_1 ?x635 ?x652))) (>= S_0 (+ ?x652 ?x635 A_1 (* (- 2.0) C))) (<= S_3 ?x1032) (>= S_2 (+ A_1 ?x635 ?x652)) (>= S_1 (+ ?x652 ?x635 A_1 (* (- 1.0) C))) (or $x59 (<= S_0 (+ ?x652 ?x635 A_1 (* (- 1.0) C)))) (or $x451 (>= S_3 (+ A_1 ?x635 ?x652 C))) (or $x59 (<= S_2 (+ A_1 ?x635 ?x652 C))) (<= S_4 ?x1039) (<= S_5 (+ A_5 ?x635)) (<= S_4 ?x16483) (<= S_2 ?x680) (or (>= S_3 (+ A_1 ?x635 ?x652 C)) $x944) (or $x59 (<= S_5 (+ A_1 ?x635 ?x652 (* 4.0 C)))) (or $x59 $x966) (<= S_5 (+ A_5 ?x596 A_1 ?x635 ?x1171)) (<= S_5 (+ A_4 ?x600 A_1 ?x635 ?x1171)) (or $x59 (<= S_3 ?x561)) (or $x944 (<= (+ C (* (- 1.0) S_3) S_1) 0.0)) (<= S_5 (+ A_5 ?x600 A_1 ?x635 ?x1302)) (or $x59 (<= S_4 ?x17821)) (<= (+ C (* (- 1.0) S_2) S_0) 0.0) (<= (+ (* (- 2.0) C) S_3 (* (- 1.0) S_2)) 0.0) (or $x966 (<= (+ ?x1302 (* (- 1.0) S_3) S_0) 0.0)) (or $x996 $x17493 (not $x511) $x18667) (or $x992 $x17493 (not $x511)) (or $x1606 $x17774 (>= S_5 (+ A_1 (* (- 1.0) L_0) ?x652 ?x1171))) (or $x966 $x996 (<= (+ ?x1302 S_2 (* (- 1.0) S_5)) 0.0)) (or $x1606 $x6390 (>= S_5 (+ A_1 (* (- 1.0) L_0) ?x652 ?x1171))) (or $x559 $x17485 (>= S_4 (+ A_3 ?x604 A_1 ?x635 C))) (or $x17485 $x17774 $x17916 (>= S_5 (+ A_3 ?x604 A_1 ?x635 ?x1302))) (<= S_3 (+ A_3 ?x604 A_1 ?x635 C)) (<= S_4 (+ A_3 ?x604 A_1 ?x635 ?x1302)) (<= S_4 (+ A_4 ?x604 A_1 ?x635 C)) (<= S_5 (+ A_4 ?x604 A_1 ?x635 ?x1302)) (or $x17258 $x17485 $x17916 $x18039 (>= S_5 (+ A_4 ?x604 A_1 ?x635 C))) (<= S_5 (+ A_3 ?x604 A_1 ?x635 ?x1171)) (<= S_5 (+ A_5 ?x596 A_3 ?x604 A_1 ?x635 ?x1302 B)) (or $x59 (<= S_5 (+ A_5 ?x604 A_1 ?x635 C))) (<= (+ (* (- 2.0) C) S_2 (* (- 1.0) S_1)) 0.0) (or $x966 (<= (+ C (* (- 1.0) S_4) S_2) 0.0)) (or $x966 (<= (+ ?x1302 (* (- 1.0) S_4) S_1) 0.0)) (or $x966 (<= (+ ?x1171 (* (- 1.0) S_4) S_0) 0.0)) (<= S_3 (+ A_2 ?x635 C)) (or $x511 $x17493 (>= S_4 (+ A_2 ?x635 C))) (<= (+ (* (- 2.0) C) S_1 ?x1186) 0.0) (<= (+ ?x2419 S_2 ?x1186) 0.0) (<= (+ ?x2419 S_3 (* (- 1.0) S_1)) 0.0) (or $x966 $x17485 $x18204) (<= S_4 ?x18666) (or $x451 $x559 $x992 $x16921) (or $x451 $x996 $x16921 $x17916 (<= (+ A_4 ?x600 B) C) $x18667) (<= S_5 (+ A_2 ?x635 ?x1171)) (<= S_5 (+ A_5 ?x596 A_2 ?x635 ?x1302 B)) (or $x17493 $x18020 $x19219 (>= S_5 (+ A_4 ?x600 A_2 ?x635 C B))) $x32411 (<= S_4 ?x19218) (<= S_5 (+ A_4 ?x600 A_2 ?x635 ?x1302 B)) (<= S_4 (+ A_4 ?x600 A_2 ?x635 C B)) (<= S_5 (+ A_4 ?x635 C)) (or $x451 $x996 $x16921 $x17258 $x17916 $x18039) (<= S_5 (+ A_3 ?x635 ?x1302)) (<= S_5 (+ A_5 ?x596 A_3 ?x635 C B)) (<= (+ (* (- 4.0) C) S_3 ?x1186) 0.0) (<= S_5 (+ A_5 ?x600 A_2 ?x635 C B)) $x33168 $x33045 (or $x1606 $x6390 $x18204) (<= (+ ?x2419 S_4 (* (- 1.0) S_2)) 0.0) (<= (+ (* (- 4.0) C) (* (- 1.0) S_2) S_5) 0.0) (<= (+ ?x2419 (* (- 1.0) S_3) S_5) 0.0) (<= (+ (* (- 5.0) C) (* (- 1.0) S_1) S_5) 0.0) (<= (+ (* (- 5.0) C) S_4 ?x1186) 0.0) (<= (+ (* (- 6.0) C) ?x1186 S_5) 0.0) (<= (+ (* (- 4.0) C) S_4 (* (- 1.0) S_1)) 0.0) $x20305 (<= (+ A_2 ?x652 ?x592 (* (- 1.0) S_3) S_5) 0.0) $x33485 $x20310 (<= (+ ?x2419 A_2 ?x652 ?x592 ?x1186 S_5) 0.0) $x696 $x910 $x42 (<= (+ (* (- 2.0) C) (* (- 1.0) S_4) S_5) 0.0) (<= (+ (* (- 2.0) C) S_4 (* (- 1.0) S_3)) 0.0)))))))))))))))))))))))))))))))))))))))))))))))))))))))))))))
(check-sat)
